33251
0 0 0 1 1 1 0 1 1 0 0 1 0 0 0 0 0 0 1 0 0 1 0 0 1 0 0 0 1 0 
18 28 21 24 21 11 21 28 18 28 4 28 8 3 28 18 3 8 24 24 18 21 5 24 5 18 24 28 4 21 4 4 4 21 28 4 8 8 24 21 18 8 11 4 8 4 3 21 28 8 24 24 24 21 8 11 11 8 18 7 4 24 7 8 3 11 5 28 28 11 18 11 4 8 5 5 8 5 8 24 5 5 8 7 4 8 4 5 24 7 28 4 7 11 5 3 11 11 5 28 28 21 11 18 4 24 4 24 24 3 4 4 18 11 11 8 28 7 28 8 8 11 28 4 4 21 21 11 4 28 28 24 11 8 5 8 3 3 28 8 11 18 11 11 11 5 24 21 18 7 24 28 5 28 8 11 5 21 3 3 3 24 5 24 5 24 5 4 3 21 5 8 28 8 4 21 24 8 4 5 5 21 21 28 11 8 28 5 24 21 21 21 4 4 7 11 7 21 5 28 
